Route #1: 1 19 1 
Route #2: 1 13 18 38 16 45 43 20 42 1 
Route #3: 1 3 30 22 35 31 40 11 6 1 
Route #4: 1 33 3 4 29 32 27 9 32 28 1 
Route #5: 1 7 25 24 8 25 15 1 
Route #6: 1 16 34 11 10 17 3 21 3 1 
Route #7: 1 2 3 39 3 23 3 12 1 
Route #8: 1 25 44 25 26 25 1 
Route #9: 1 5 42 14 42 41 42 1 
Cost 841.0
